(set-option :produce-models true)
(set-logic QF_AUFBV )
(declare-fun v0___symfile____tmp_input___0_1_symfile___0 () (Array (_ BitVec 32) (_ BitVec 8) ) )
(assert (let ( (?B1 (select  v0___symfile____tmp_input___0_1_symfile___0 (_ bv2 32) ) ) (?B2 (select  v0___symfile____tmp_input___0_1_symfile___0 (_ bv1 32) ) ) (?B3 (select  v0___symfile____tmp_input___0_1_symfile___0 (_ bv0 32) ) ) ) (let ( (?B6 ((_ zero_extend 24)  ?B3 ) ) (?B7 ((_ sign_extend 24)  ?B3 ) ) (?B4 ((_ sign_extend 24)  ?B1 ) ) (?B5 ((_ sign_extend 24)  ?B2 ) ) ) (let ( (?B8 (bvadd  (bvshl  (bvadd  (_ bv4294967248 32) ?B7 ) (_ bv2 32) ) ?B7 ) ) ) (let ( (?B9 (bvadd  (bvadd  ?B8 ?B8 ) ?B5 ) ) ) (let ( (?B10 (bvadd  (bvshl  (bvadd  (_ bv4294967152 32) ?B9 ) (_ bv2 32) ) ?B9 ) ) ) (let ( (?B11 (bvadd  (_ bv4294966960 32) (bvadd  (bvadd  ?B10 ?B10 ) ?B4 ) ) ) ) (let ( (?B12 (ite (bvuge (_ bv31 32) (_ bv32 32) ) (_ bv0 32) (bvashr ?B11 (_ bv31 32) ) ) ) ) (let ( (?B13 (bvsub  (bvxor  ?B11 ?B12 ) ?B12 ) ) ) (let ( (?B14 (bvlshr  ((_ extract 31  0)  (bvlshr  (bvmul  (_ bv3435973837 64) ((_ zero_extend 32)  ?B13 ) ) (_ bv32 64) ) ) (_ bv3 32) ) ) ) (let ( (?B15 (bvadd  ?B14 (bvshl  ?B14 (_ bv2 32) ) ) ) ) (let ( (?B16 (bvadd  (_ bv139637231747072 64) ((_ zero_extend 32)  (bvadd  (_ bv135011232 32) (bvsub  ?B13 (bvadd  ?B15 ?B15 ) ) ) ) ) ) ) (and  (and  (and  (and  (and  (and  (and  (and  (and  (and  (and  (and  (and  (=  false (and  (bvule  (_ bv139637366758272 64) ?B16 ) (bvult  ?B16 (_ bv139637366758400 64) ) ) ) (=  false (bvslt  (_ bv57 32) ?B4 ) ) ) (=  false (bvsle  ?B4 (_ bv47 32) ) ) ) (=  false (bvslt  (_ bv57 32) ?B5 ) ) ) (=  false (bvsle  ?B5 (_ bv47 32) ) ) ) (=  false (bvslt  (_ bv57 32) ?B7 ) ) ) (=  false (bvsle  ?B7 (_ bv47 32) ) ) ) (=  false (=  (_ bv0 32) (bvand  (bvand  ?B6 ?B6 ) (_ bv255 32) ) ) ) ) (bvule  ?B1 (_ bv126 8) ) ) (bvule  (_ bv32 8) ?B1 ) ) (bvule  ?B2 (_ bv126 8) ) ) (bvule  (_ bv32 8) ?B2 ) ) (bvule  ?B3 (_ bv126 8) ) ) (bvule  (_ bv32 8) ?B3 ) ) ) ) ) ) ) ) ) ) ) ) ) )
(check-sat)
;(get-value ( (select v0___symfile____tmp_input___0_1_symfile___0 (_ bv0 32) ) ) )
;(get-value ( (select v0___symfile____tmp_input___0_1_symfile___0 (_ bv1 32) ) ) )
;(get-value ( (select v0___symfile____tmp_input___0_1_symfile___0 (_ bv2 32) ) ) )
(exit)

